c "552114.clq"
p edge 80 304
e 1 5
e 2 5
e 2 6
e 2 8
e 2 10
e 2 11
e 2 14
e 2 15
e 2 26
e 2 29
e 2 46
e 2 52
e 2 53
e 2 62
e 3 5
e 3 6
e 3 7
e 3 12
e 3 27
e 3 38
e 3 40
e 3 43
e 3 50
e 3 63
e 3 68
e 4 5
e 4 6
e 4 7
e 4 8
e 4 9
e 4 10
e 4 11
e 4 13
e 4 15
e 4 16
e 4 21
e 4 22
e 4 27
e 4 30
e 4 32
e 4 34
e 4 38
e 4 51
e 4 53
e 4 60
e 4 71
e 4 76
e 4 77
e 5 6
e 5 7
e 5 8
e 5 9
e 5 10
e 5 12
e 5 13
e 5 14
e 5 18
e 5 19
e 5 22
e 5 31
e 5 44
e 5 47
e 5 52
e 5 57
e 5 58
e 5 65
e 5 66
e 6 7
e 6 8
e 6 9
e 6 11
e 6 13
e 6 14
e 6 16
e 6 17
e 6 18
e 6 20
e 6 26
e 6 32
e 6 39
e 6 46
e 6 47
e 6 58
e 6 59
e 6 60
e 6 63
e 6 73
e 7 9
e 7 10
e 7 11
e 7 12
e 7 13
e 7 15
e 7 16
e 7 17
e 7 19
e 7 20
e 7 25
e 7 26
e 7 28
e 7 29
e 7 38
e 7 39
e 7 43
e 7 44
e 7 48
e 7 58
e 7 61
e 7 66
e 7 68
e 7 69
e 8 12
e 8 17
e 8 21
e 8 23
e 8 34
e 8 47
e 8 74
e 9 35
e 9 37
e 10 21
e 10 27
e 10 44
e 10 49
e 10 50
e 10 67
e 11 17
e 11 18
e 11 19
e 11 20
e 11 23
e 11 25
e 11 28
e 11 36
e 11 40
e 11 41
e 11 42
e 11 43
e 11 45
e 11 51
e 11 54
e 11 62
e 11 64
e 11 73
e 12 15
e 12 16
e 12 18
e 12 19
e 12 26
e 12 29
e 12 32
e 12 33
e 12 50
e 12 54
e 12 56
e 12 64
e 12 80
e 13 14
e 13 24
e 13 27
e 13 37
e 13 41
e 13 51
e 13 68
e 13 71
e 14 41
e 14 44
e 14 55
e 14 76
e 15 35
e 15 36
e 15 39
e 15 58
e 15 64
e 15 80
e 16 23
e 16 55
e 16 57
e 16 64
e 16 67
e 17 21
e 17 24
e 17 35
e 17 57
e 17 65
e 18 65
e 18 69
e 18 74
e 19 20
e 19 22
e 19 23
e 19 33
e 19 40
e 19 50
e 19 56
e 20 22
e 20 28
e 20 29
e 20 33
e 20 41
e 20 43
e 20 49
e 20 59
e 20 71
e 21 25
e 21 31
e 21 36
e 21 56
e 21 59
e 21 70
e 21 71
e 22 24
e 22 25
e 22 30
e 22 42
e 22 51
e 22 52
e 22 80
e 23 24
e 23 32
e 23 53
e 23 78
e 24 49
e 25 70
e 25 75
e 26 28
e 26 30
e 26 33
e 26 36
e 26 37
e 26 39
e 26 45
e 26 48
e 27 31
e 27 48
e 27 67
e 28 35
e 28 72
e 28 76
e 28 77
e 29 30
e 29 73
e 29 79
e 30 31
e 30 34
e 30 40
e 30 45
e 30 72
e 30 80
e 31 34
e 33 48
e 34 74
e 35 38
e 35 42
e 36 37
e 37 42
e 37 55
e 37 76
e 38 45
e 38 46
e 38 53
e 38 61
e 38 73
e 39 46
e 39 61
e 39 66
e 39 79
e 40 54
e 40 62
e 41 75
e 43 56
e 43 66
e 43 68
e 43 70
e 44 52
e 44 65
e 44 67
e 44 69
e 45 47
e 45 59
e 45 77
e 46 49
e 46 77
e 46 78
e 47 60
e 49 62
e 50 75
e 52 54
e 53 55
e 54 61
e 54 78
e 55 57
e 56 63
e 59 60
e 59 69
e 60 63
e 62 72
e 64 72
e 64 79
e 68 70
e 69 74
e 72 75
e 74 79
e 75 78
